Route #1: 128 115 82 133 124 33 86 3 130
Route #2: 83 78 74 50 38 19 17 76
Route #3: 129 116 105 41 34 58 60 95
Route #4: 90 108 6 97 5 77 121 7 68 30 8 107 84 81 15 63 13 96
Route #5: 109 87 26 35 54 110 123 56 132
Route #6: 112 48 64 117 49 71 61 1 69
Route #7: 40 52 131 114 127 125 122 100
Route #8: 31 92 29 119 57 85 12 80
Route #9: 66 53 23 98 44 70 4 27 22 55 126 67 20 75 28 65 42 93 94 102 45 21
Route #10: 79 120 43 36 111 104 99 46 106
Route #11: 72 103 10 88 37 24 62 32
Route #12: 91 14 2 9 47 16 51 118
Route #13: 39 73 18 59 25 113 89 101 11
Cost 10933.000000